db/data/1738993511728253751094415679233614440.z3.out
sat
-------------------
1.026241793
